c nIsolatedPIs 0
c maxPI 32
p cnf 227 586
c gate 33 11 27 0
11 -33 0
27 -33 0
-11 -27 33 0
c gate 34 10 26 0
10 -34 0
26 -34 0
-10 -26 34 0
c gate 35 -33 -34 0
-33 -35 0
-34 -35 0
33 34 35 0
c gate 36 9 25 0
9 -36 0
25 -36 0
-9 -25 36 0
c gate 37 -8 -24 0
-8 -37 0
-24 -37 0
8 24 37 0
c gate 38 -7 -23 0
-7 -38 0
-23 -38 0
7 23 38 0
c gate 39 -6 -22 0
-6 -39 0
-22 -39 0
6 22 39 0
c gate 40 -2 -18 0
-2 -40 0
-18 -40 0
2 18 40 0
c gate 41 4 20 0
4 -41 0
20 -41 0
-4 -20 41 0
c gate 42 3 19 0
3 -42 0
19 -42 0
-3 -19 42 0
c gate 43 -41 -42 0
-41 -43 0
-42 -43 0
41 42 43 0
c gate 44 40 43 0
40 -44 0
43 -44 0
-40 -43 44 0
c gate 45 -3 -19 0
-3 -45 0
-19 -45 0
3 19 45 0
c gate 46 1 17 0
1 -46 0
17 -46 0
-1 -17 46 0
c gate 47 2 18 0
2 -47 0
18 -47 0
-2 -18 47 0
c gate 48 -46 -47 0
-46 -48 0
-47 -48 0
46 47 48 0
c gate 49 -45 -48 0
-45 -49 0
-48 -49 0
45 48 49 0
c gate 50 43 -49 0
43 -50 0
-49 -50 0
-43 49 50 0
c gate 51 -5 -21 0
-5 -51 0
-21 -51 0
5 21 51 0
c gate 52 -4 -20 0
-4 -52 0
-20 -52 0
4 20 52 0
c gate 53 -51 -52 0
-51 -53 0
-52 -53 0
51 52 53 0
c gate 54 -50 53 0
-50 -54 0
53 -54 0
50 -53 54 0
c gate 55 -44 54 0
-44 -55 0
54 -55 0
44 -54 55 0
c gate 56 6 22 0
6 -56 0
22 -56 0
-6 -22 56 0
c gate 57 5 21 0
5 -57 0
21 -57 0
-5 -21 57 0
c gate 58 -56 -57 0
-56 -58 0
-57 -58 0
56 57 58 0
c gate 59 -55 58 0
-55 -59 0
58 -59 0
55 -58 59 0
c gate 60 -39 -59 0
-39 -60 0
-59 -60 0
39 59 60 0
c gate 61 -38 60 0
-38 -61 0
60 -61 0
38 -60 61 0
c gate 62 8 24 0
8 -62 0
24 -62 0
-8 -24 62 0
c gate 63 7 23 0
7 -63 0
23 -63 0
-7 -23 63 0
c gate 64 -62 -63 0
-62 -64 0
-63 -64 0
62 63 64 0
c gate 65 -61 64 0
-61 -65 0
64 -65 0
61 -64 65 0
c gate 66 -37 -65 0
-37 -66 0
-65 -66 0
37 65 66 0
c gate 67 -36 -66 0
-36 -67 0
-66 -67 0
36 66 67 0
c gate 68 -9 -25 0
-9 -68 0
-25 -68 0
9 25 68 0
c gate 69 -10 -26 0
-10 -69 0
-26 -69 0
10 26 69 0
c gate 70 -68 -69 0
-68 -70 0
-69 -70 0
68 69 70 0
c gate 71 -67 70 0
-67 -71 0
70 -71 0
67 -70 71 0
c gate 72 35 -71 0
35 -72 0
-71 -72 0
-35 71 72 0
c gate 73 -11 -27 0
-11 -73 0
-27 -73 0
11 27 73 0
c gate 74 12 28 0
12 -74 0
28 -74 0
-12 -28 74 0
c gate 75 -12 -28 0
-12 -75 0
-28 -75 0
12 28 75 0
c gate 76 -74 -75 0
-74 -76 0
-75 -76 0
74 75 76 0
c gate 77 -73 76 0
-73 -77 0
76 -77 0
73 -76 77 0
c gate 78 -72 77 0
-72 -78 0
77 -78 0
72 -77 78 0
c gate 79 10 -26 0
10 -79 0
-26 -79 0
-10 26 79 0
c gate 80 -36 -68 0
-36 -80 0
-68 -80 0
36 68 80 0
c gate 81 8 -24 0
8 -81 0
-24 -81 0
-8 24 81 0
c gate 82 -80 -81 0
-80 -82 0
-81 -82 0
80 81 82 0
c gate 83 -9 25 0
-9 -83 0
25 -83 0
9 -25 83 0
c gate 84 -10 26 0
-10 -84 0
26 -84 0
10 -26 84 0
c gate 85 -83 -84 0
-83 -85 0
-84 -85 0
83 84 85 0
c gate 86 -82 85 0
-82 -86 0
85 -86 0
82 -85 86 0
c gate 87 -79 -86 0
-79 -87 0
-86 -87 0
79 86 87 0
c gate 88 -37 -62 0
-37 -88 0
-62 -88 0
37 62 88 0
c gate 89 -7 23 0
-7 -89 0
23 -89 0
7 -23 89 0
c gate 90 -2 18 0
-2 -90 0
18 -90 0
2 -18 90 0
c gate 91 -1 17 0
-1 -91 0
17 -91 0
1 -17 91 0
c gate 92 -90 -91 0
-90 -92 0
-91 -92 0
90 91 92 0
c gate 93 2 -18 0
2 -93 0
-18 -93 0
-2 18 93 0
c gate 94 3 -19 0
3 -94 0
-19 -94 0
-3 19 94 0
c gate 95 -93 -94 0
-93 -95 0
-94 -95 0
93 94 95 0
c gate 96 -92 95 0
-92 -96 0
95 -96 0
92 -95 96 0
c gate 97 -4 20 0
-4 -97 0
20 -97 0
4 -20 97 0
c gate 98 -3 19 0
-3 -98 0
19 -98 0
3 -19 98 0
c gate 99 -97 -98 0
-97 -99 0
-98 -99 0
97 98 99 0
c gate 100 -96 99 0
-96 -100 0
99 -100 0
96 -99 100 0
c gate 101 5 -21 0
5 -101 0
-21 -101 0
-5 21 101 0
c gate 102 4 -20 0
4 -102 0
-20 -102 0
-4 20 102 0
c gate 103 -101 -102 0
-101 -103 0
-102 -103 0
101 102 103 0
c gate 104 -100 103 0
-100 -104 0
103 -104 0
100 -103 104 0
c gate 105 -39 -56 0
-39 -105 0
-56 -105 0
39 56 105 0
c gate 106 -5 21 0
-5 -106 0
21 -106 0
5 -21 106 0
c gate 107 -105 -106 0
-105 -107 0
-106 -107 0
105 106 107 0
c gate 108 -104 107 0
-104 -108 0
107 -108 0
104 -107 108 0
c gate 109 -89 108 0
-89 -109 0
108 -109 0
89 -108 109 0
c gate 110 7 -23 0
7 -110 0
-23 -110 0
-7 23 110 0
c gate 111 6 -22 0
6 -111 0
-22 -111 0
-6 22 111 0
c gate 112 -89 111 0
-89 -112 0
111 -112 0
89 -111 112 0
c gate 113 -110 -112 0
-110 -113 0
-112 -113 0
110 112 113 0
c gate 114 -109 113 0
-109 -114 0
113 -114 0
109 -113 114 0
c gate 115 -88 -114 0
-88 -115 0
-114 -115 0
88 114 115 0
c gate 116 85 115 0
85 -116 0
115 -116 0
-85 -115 116 0
c gate 117 87 -116 0
87 -117 0
-116 -117 0
-87 116 117 0
c gate 118 -33 -73 0
-33 -118 0
-73 -118 0
33 73 118 0
c gate 119 117 -118 0
117 -119 0
-118 -119 0
-117 118 119 0
c gate 120 -117 118 0
-117 -120 0
118 -120 0
117 -118 120 0
c gate 121 -119 -120 0
-119 -121 0
-120 -121 0
119 120 121 0
c gate 122 87 -121 0
87 -122 0
-121 -122 0
-87 121 122 0
c gate 123 -15 -31 0
-15 -123 0
-31 -123 0
15 31 123 0
c gate 124 15 31 0
15 -124 0
31 -124 0
-15 -31 124 0
c gate 125 -123 -124 0
-123 -125 0
-124 -125 0
123 124 125 0
c gate 126 -14 -30 0
-14 -126 0
-30 -126 0
14 30 126 0
c gate 127 14 30 0
14 -127 0
30 -127 0
-14 -30 127 0
c gate 128 -126 -127 0
-126 -128 0
-127 -128 0
126 127 128 0
c gate 129 -13 -29 0
-13 -129 0
-29 -129 0
13 29 129 0
c gate 130 13 29 0
13 -130 0
29 -130 0
-13 -29 130 0
c gate 131 -74 -130 0
-74 -131 0
-130 -131 0
74 130 131 0
c gate 132 -78 131 0
-78 -132 0
131 -132 0
78 -131 132 0
c gate 133 -129 -132 0
-129 -133 0
-132 -133 0
129 132 133 0
c gate 134 128 -133 0
128 -134 0
-133 -134 0
-128 133 134 0
c gate 135 -126 -134 0
-126 -135 0
-134 -135 0
126 134 135 0
c gate 136 125 -135 0
125 -136 0
-135 -136 0
-125 135 136 0
c gate 137 -123 -136 0
-123 -137 0
-136 -137 0
123 136 137 0
c gate 138 16 32 0
16 -138 0
32 -138 0
-16 -32 138 0
c gate 139 -16 -32 0
-16 -139 0
-32 -139 0
16 32 139 0
c gate 140 -138 -139 0
-138 -140 0
-139 -140 0
138 139 140 0
c gate 141 128 -131 0
128 -141 0
-131 -141 0
-128 131 141 0
c gate 142 -127 -141 0
-127 -142 0
-141 -142 0
127 141 142 0
c gate 143 125 142 0
125 -143 0
142 -143 0
-125 -142 143 0
c gate 144 -123 -143 0
-123 -144 0
-143 -144 0
123 143 144 0
c gate 145 140 -144 0
140 -145 0
-144 -145 0
-140 144 145 0
c gate 146 137 145 0
137 -146 0
145 -146 0
-137 -145 146 0
c gate 147 -108 -146 0
-108 -147 0
-146 -147 0
108 146 147 0
c gate 148 -128 131 0
-128 -148 0
131 -148 0
128 -131 148 0
c gate 149 -141 -148 0
-141 -149 0
-148 -149 0
141 148 149 0
c gate 150 -128 133 0
-128 -150 0
133 -150 0
128 -133 150 0
c gate 151 -134 -150 0
-134 -151 0
-150 -151 0
134 150 151 0
c gate 152 149 151 0
149 -152 0
151 -152 0
-149 -151 152 0
c gate 153 -149 -151 0
-149 -153 0
-151 -153 0
149 151 153 0
c gate 154 -152 -153 0
-152 -154 0
-153 -154 0
152 153 154 0
c gate 155 -37 -38 0
-37 -155 0
-38 -155 0
37 38 155 0
c gate 156 -36 -62 0
-36 -156 0
-62 -156 0
36 62 156 0
c gate 157 -155 156 0
-155 -157 0
156 -157 0
155 -156 157 0
c gate 158 70 -157 0
70 -158 0
-157 -158 0
-70 157 158 0
c gate 159 35 -76 0
35 -159 0
-76 -159 0
-35 76 159 0
c gate 160 -158 159 0
-158 -160 0
159 -160 0
158 -159 160 0
c gate 161 71 160 0
71 -161 0
160 -161 0
-71 -160 161 0
c gate 162 76 158 0
76 -162 0
158 -162 0
-76 -158 162 0
c gate 163 72 162 0
72 -163 0
162 -163 0
-72 -162 163 0
c gate 164 -161 -163 0
-161 -164 0
-163 -164 0
161 163 164 0
c gate 165 -73 -164 0
-73 -165 0
-164 -165 0
73 164 165 0
c gate 166 154 165 0
154 -166 0
165 -166 0
-154 -165 166 0
c gate 167 -137 140 0
-137 -167 0
140 -167 0
137 -140 167 0
c gate 168 137 -140 0
137 -168 0
-140 -168 0
-137 140 168 0
c gate 169 -167 -168 0
-167 -169 0
-168 -169 0
167 168 169 0
c gate 170 -140 144 0
-140 -170 0
144 -170 0
140 -144 170 0
c gate 171 -145 -170 0
-145 -171 0
-170 -171 0
145 170 171 0
c gate 172 -169 171 0
-169 -172 0
171 -172 0
169 -171 172 0
c gate 173 169 -171 0
169 -173 0
-171 -173 0
-169 171 173 0
c gate 174 -125 -142 0
-125 -174 0
-142 -174 0
125 142 174 0
c gate 175 -143 -174 0
-143 -175 0
-174 -175 0
143 174 175 0
c gate 176 -125 135 0
-125 -176 0
135 -176 0
125 -135 176 0
c gate 177 -136 -176 0
-136 -177 0
-176 -177 0
136 176 177 0
c gate 178 175 -177 0
175 -178 0
-177 -178 0
-175 177 178 0
c gate 179 -175 177 0
-175 -179 0
177 -179 0
175 -177 179 0
c gate 180 -129 -130 0
-129 -180 0
-130 -180 0
129 130 180 0
c gate 181 78 -180 0
78 -181 0
-180 -181 0
-78 180 181 0
c gate 182 -153 -181 0
-153 -182 0
-181 -182 0
153 181 182 0
c gate 183 -179 -182 0
-179 -183 0
-182 -183 0
179 182 183 0
c gate 184 -178 -183 0
-178 -184 0
-183 -184 0
178 183 184 0
c gate 185 -173 -184 0
-173 -185 0
-184 -185 0
173 184 185 0
c gate 186 -172 -185 0
-172 -186 0
-185 -186 0
172 185 186 0
c gate 187 -166 186 0
-166 -187 0
186 -187 0
166 -186 187 0
c gate 188 64 155 0
64 -188 0
155 -188 0
-64 -155 188 0
c gate 189 -60 188 0
-60 -189 0
188 -189 0
60 -188 189 0
c gate 190 -78 -189 0
-78 -190 0
-189 -190 0
78 189 190 0
c gate 191 154 190 0
154 -191 0
190 -191 0
-154 -190 191 0
c gate 192 -187 -191 0
-187 -192 0
-191 -192 0
187 191 192 0
c gate 193 147 192 0
147 -193 0
192 -193 0
-147 -192 193 0
c gate 194 -38 -63 0
-38 -194 0
-63 -194 0
38 63 194 0
c gate 195 108 194 0
108 -195 0
194 -195 0
-108 -194 195 0
c gate 196 -108 -138 0
-108 -196 0
-138 -196 0
108 138 196 0
c gate 197 -145 196 0
-145 -197 0
196 -197 0
145 -196 197 0
c gate 198 167 197 0
167 -198 0
197 -198 0
-167 -197 198 0
c gate 199 -195 -198 0
-195 -199 0
-198 -199 0
195 198 199 0
c gate 200 -193 199 0
-193 -200 0
199 -200 0
193 -199 200 0
c gate 201 88 113 0
88 -201 0
113 -201 0
-88 -113 201 0
c gate 202 -114 201 0
-114 -202 0
201 -202 0
114 -201 202 0
c gate 203 -115 -202 0
-115 -203 0
-202 -203 0
115 202 203 0
c gate 204 200 203 0
200 -204 0
203 -204 0
-200 -203 204 0
c gate 205 -34 -69 0
-34 -205 0
-69 -205 0
34 69 205 0
c gate 206 -80 -205 0
-80 -206 0
-205 -206 0
80 205 206 0
c gate 207 115 206 0
115 -207 0
206 -207 0
-115 -206 207 0
c gate 208 -204 -207 0
-204 -208 0
-207 -208 0
204 207 208 0
c gate 209 -122 -208 0
-122 -209 0
-208 -209 0
122 208 209 0
c gate 210 -119 -209 0
-119 -210 0
-209 -210 0
119 209 210 0
c gate 211 -125 -128 0
-125 -211 0
-128 -211 0
125 128 211 0
c gate 212 -76 -140 0
-76 -212 0
-140 -212 0
76 140 212 0
c gate 213 -180 212 0
-180 -213 0
212 -213 0
180 -212 213 0
c gate 214 211 213 0
211 -214 0
213 -214 0
-211 -213 214 0
c gate 215 119 214 0
119 -215 0
214 -215 0
-119 -214 215 0
c gate 216 -210 -215 0
-210 -216 0
-215 -216 0
210 215 216 0
c gate 217 40 46 0
40 -217 0
46 -217 0
-40 -46 217 0
c gate 218 -39 59 0
-39 -218 0
59 -218 0
39 -59 218 0
c gate 219 -217 -218 0
-217 -219 0
-218 -219 0
217 218 219 0
c gate 220 39 194 0
39 -220 0
194 -220 0
-39 -194 220 0
c gate 221 219 -220 0
219 -221 0
-220 -221 0
-219 220 221 0
c gate 222 -216 -221 0
-216 -222 0
-221 -222 0
216 221 222 0
c gate 223 78 -222 0
78 -223 0
-222 -223 0
-78 222 223 0
c gate 224 -165 -221 0
-165 -224 0
-221 -224 0
165 221 224 0
c gate 225 -78 224 0
-78 -225 0
224 -225 0
78 -224 225 0
c gate 226 -216 225 0
-216 -226 0
225 -226 0
216 -225 226 0
c gate 227 -223 -226 0
-223 -227 0
-226 -227 0
223 226 227 0
c PO
-227 0
